
Welcome to IBM(R) ILOG(R) CPLEX(R) Interactive Optimizer 22.1.1.0
  with Simplex, Mixed Integer & Barrier Optimizers
5725-A06 5725-A29 5724-Y48 5724-Y49 5724-Y54 5724-Y55 5655-Y21
Copyright IBM Corp. 1988, 2022.  All Rights Reserved.

Type 'help' for a list of available commands.
Type 'help' followed by a command name for more
information on commands.

CPLEX> Selected objective sense:  MINIMIZE
Selected objective  name:  00000000
Selected RHS        name:  RHS1
Selected bound      name:  BOUND
Problem 'ee.mps' read.
Read time = 0.03 sec. (3.14 ticks)
CPLEX> New value for time limit in seconds: 7200
CPLEX> New value for parallel optimization mode: -1
CPLEX> New value for default parallel thread count: 40
CPLEX> New value for mixed integer optimality gap tolerance: 1e-13
CPLEX> Version identifier: 22.1.1.0 | 2022-11-28 | 9160aff4d
CPXPARAM_Threads                                 40
CPXPARAM_Parallel                                -1
CPXPARAM_TimeLimit                               7200
CPXPARAM_MIP_Tolerances_MIPGap                   1e-13
Found incumbent of value 0.000000 after 0.00 sec. (0.31 ticks)
Tried aggregator 2 times.
MIP Presolve eliminated 179 rows and 2745 columns.
MIP Presolve modified 5862 coefficients.
Aggregator did 713 substitutions.
Reduced MIP has 3624 rows, 7739 columns, and 28645 nonzeros.
Reduced MIP has 7739 binaries, 0 generals, 0 SOSs, and 0 indicators.
Presolve time = 0.07 sec. (68.56 ticks)
Probing time = 0.03 sec. (5.68 ticks)
Tried aggregator 1 time.
Detecting symmetries...
Reduced MIP has 3624 rows, 7739 columns, and 28645 nonzeros.
Reduced MIP has 7739 binaries, 0 generals, 0 SOSs, and 0 indicators.
Presolve time = 0.02 sec. (21.84 ticks)
Probing time = 0.02 sec. (5.48 ticks)
Clique table members: 18552.
MIP emphasis: balance optimality and feasibility.
MIP search method: dynamic search.
Parallel mode: opportunistic, using up to 40 threads.
Root relaxation solution time = 0.10 sec. (85.82 ticks)

        Nodes                                         Cuts/
   Node  Left     Objective  IInf  Best Integer    Best Bound    ItCnt     Gap

*     0+    0                            0.0000  -1.31000e+13              --- 
*     0+    0                      -3.30000e+12  -1.31000e+13           296.97%
*     0+    0                      -4.40000e+12  -1.31000e+13           197.73%
*     0+    0                      -5.50000e+12  -1.31000e+13           138.18%
*     0+    0                      -6.60000e+12  -1.31000e+13            98.48%
      0     0  -1.30900e+13    26  -6.60000e+12  -1.30900e+13     2095   98.33%
*     0+    0                      -1.30900e+13  -1.30900e+13             0.00%
      0     0  -1.30900e+13   106  -1.30900e+13      Cuts: 55     2296    0.00%
*     0+    0                      -1.30900e+13  -1.30900e+13             0.00%
*     0+    0                      -1.30900e+13  -1.30900e+13             0.00%
      0     0  -1.30900e+13   170  -1.30900e+13      Cuts: 64     2748    0.00%
*     0+    0                      -1.30900e+13  -1.30900e+13             0.00%
*     0+    0                      -1.30900e+13  -1.30900e+13             0.00%
*     0+    0                      -1.30900e+13  -1.30900e+13             0.00%

Repeating presolve.
Tried aggregator 2 times.
MIP Presolve eliminated 1599 rows and 3794 columns.
MIP Presolve added 8 rows and 0 columns.
MIP Presolve modified 48 coefficients.
Aggregator did 516 substitutions.
Reduced MIP has 1517 rows, 3369 columns, and 12060 nonzeros.
Reduced MIP has 3369 binaries, 0 generals, 0 SOSs, and 0 indicators.
Presolve time = 0.05 sec. (56.54 ticks)
Probing fixed 1 vars, tightened 0 bounds.
Probing time = 0.03 sec. (10.98 ticks)
Tried aggregator 1 time.
Detecting symmetries...
MIP Presolve eliminated 22 rows and 17 columns.
Reduced MIP has 1495 rows, 3350 columns, and 12002 nonzeros.
Reduced MIP has 3350 binaries, 0 generals, 0 SOSs, and 0 indicators.
Presolve time = 0.02 sec. (16.72 ticks)
Represolve time = 0.12 sec. (100.14 ticks)
Probing time = 0.02 sec. (3.65 ticks)
Clique table members: 7921.
MIP emphasis: balance optimality and feasibility.
MIP search method: dynamic search.
Parallel mode: opportunistic, using up to 40 threads.
Root relaxation solution time = 0.06 sec. (38.29 ticks)

        Nodes                                         Cuts/
   Node  Left     Objective  IInf  Best Integer    Best Bound    ItCnt     Gap

*     0+    0                      -1.30900e+13  -1.30900e+13             0.00%
      0     0  -1.30900e+13   104  -1.30900e+13  -1.30900e+13     3870    0.00%
      0     0  -1.30900e+13   125  -1.30900e+13      Cuts: 77     3948    0.00%
      0     0  -1.30900e+13   142  -1.30900e+13      Cuts: 70     4154    0.00%
      0     2  -1.30900e+13   128  -1.30900e+13  -1.30900e+13     4154    0.00%
Elapsed time = 1.61 sec. (931.05 ticks, tree = 0.02 MB, solutions = 12)
   1843    39  -1.30900e+13   214  -1.30900e+13  -1.30900e+13    46386    0.00%
   3051    24  -1.30900e+13   159  -1.30900e+13  -1.30900e+13   126850    0.00%

GUB cover cuts applied:  13
Clique cuts applied:  16
Cover cuts applied:  352
Flow cuts applied:  2
Mixed integer rounding cuts applied:  13
Zero-half cuts applied:  21
Lift and project cuts applied:  15
Gomory fractional cuts applied:  16

Root node processing (before b&c):
  Real time             =    1.18 sec. (930.78 ticks)
Parallel b&c, 40 threads:
  Real time             =    1.49 sec. (507.99 ticks)
  Sync time (average)   =    0.67 sec.
  Wait time (average)   =    0.00 sec.
                          ------------
Total (root+branch&cut) =    2.67 sec. (1438.77 ticks)

Solution pool: 12 solutions saved.

MIP - Integer optimal solution:  Objective = -1.3089999790e+13
Solution time =    2.74 sec.  Iterations = 144566  Nodes = 3071
Deterministic time = 1438.80 ticks  (524.38 ticks/sec)

CPLEX> Solution 'p13' written to file 'ee.sol'.
CPLEX> 